24

1 20 10
2 17 9
3 20 22
4 13 19
5 24 9
6 14 9
7 24 13
8 20 17
9 3 17
10 6 4
11 4 10
12 19 8
13 12 8
14 17 14
15 14 11
16 5 9
17 21 14
18 6 15
19 5 18
20 11 8
21 9 18
22 18 15
23 5 11
24 14 23

198
